p cnf 24 54
-6 3 0
-6 1 0
6 -3 -1 0
-7 4 0
-7 3 0
7 -4 -3 0
-8 -7 0
-8 2 0
8 7 -2 0
-9 -8 0
-9 -6 0
9 8 6 0
-10 -7 0
-10 5 0
10 7 -5 0
-11 -10 0
-11 -8 0
11 10 8 0
-17 14 0
-17 12 0
17 -14 -12 0
-18 15 0
-18 14 0
18 -15 -14 0
-19 -18 0
-19 13 0
19 18 -13 0
-20 -19 0
-20 -17 0
20 19 17 0
-21 -18 0
-21 16 0
21 18 -16 0
-22 -21 0
-22 -19 0
22 21 19 0
-2 13 0
2 -13 0
-3 14 0
3 -14 0
-4 15 0
4 -15 0
-5 16 0
5 -16 0
9 20 -23 0
9 -20 23 0
-9 20 23 0
-9 -20 -23 0
11 22 -24 0
11 -22 24 0
-11 22 24 0
-11 -22 -24 0
1 0
-12 0
